WARNING: for repeatability, setting FPU to use double precision
============================[ Problem Statistics ]=============================
|                                                                             |
|  Number of variables:           100                                         |
|  Number of clauses:             449                                         |
|  Parse time:                   0.00 s                                       |
|  Eliminated clauses:           0.00 Mb                                      |
|  Simplification time:          0.00 s                                       |
|                                                                             |
============================[ Search Statistics ]==============================
| Conflicts |          ORIGINAL         |          LEARNT          | Progress |
|           |    Vars  Clauses Literals |    Limit  Clauses Lit/Cl |          |
===============================================================================
|       100 |      94      429     1314 |      157      100      7 |  0.011 % |
|       250 |      94      429     1314 |      173      168      6 |  0.010 % |
===============================================================================
restarts              : 3
conflicts             : 286            (106716 /sec)
decisions             : 361            (0.00 % random) (134701 /sec)
propagations          : 6451           (2407090 /sec)
conflict literals     : 1825           (20.65 % deleted)
Memory used           : 13.00 MB
CPU time              : 0.00268 s

SATISFIABLE
